p td 22 60
3 2
5 4
5 2
5 1
6 2
6 3
7 2
8 4
8 2
8 1
9 5
10 1
10 9
11 10
11 6
12 5
12 4
14 8
14 7
14 11
15 11
15 13
15 5
15 7
15 3
16 3
16 11
16 5
16 14
16 7
17 11
17 7
17 12
17 6
17 16
18 13
19 15
19 8
19 14
19 17
19 9
20 1
20 17
20 19
20 3
20 7
21 12
21 1
21 7
21 20
21 11
21 4
22 17
22 12
22 5
22 1
22 21
22 13
22 6
22 11
